219	42	4	166	
15	12	13	13

0	0	0	0	0	0	2	1	2
1	9	2	3	4	10	1	5
2	2	5	7	7	9	1	3
3	6	9	8	8	10	1	4
4	7	2	3	9	10	1	7
5	7	10	7	3	1	1	6
6	2	10	7	7	3	1	8
7	3	9	3	3	4	2	9	20
8	5	10	7	3	3	1	11
9	4	4	6	6	4	1	10
10	1	8	1	3	3	1	13
11	10	2	1	9	7	1	12
12	9	7	4	8	9	1	14
13	5	6	1	5	5	1	16
14	9	9	3	7	4	1	15
15	4	1	5	5	1	1	18
16	8	7	3	3	1	2	17	39
17	10	2	10	6	8	1	24
18	10	7	9	2	3	1	19
19	3	5	10	6	7	2	20	40
20	10	3	5	3	7	1	21
21	7	7	9	3	9	1	22
22	7	6	7	2	5	1	23
23	8	9	6	9	6	1	26
24	4	8	9	8	4	1	25
25	5	1	7	3	5	1	27
26	10	6	1	10	10	1	28
27	10	9	1	9	8	1	29
28	2	5	8	5	4	1	31
29	9	5	10	6	1	1	30
30	3	9	8	1	4	1	32
31	6	1	8	7	6	1	35
32	9	10	1	2	6	1	33
33	7	1	6	9	2	1	34
34	10	10	10	2	10	1	36
35	9	3	6	9	3	1	38
36	4	5	3	1	7	1	37
37	9	1	5	2	7	1	41
38	1	1	4	2	4	1	41
39	4	9	2	10	2	1	41
40	8	2	7	6	7	1	41
41	0	0	0	0	0	0
